
Gurobi 8.0.1 (linux64, C++) logging started Sun Jan 20 03:53:52 2019

Academic license - for non-commercial use only

Gurobi 8.0.1 (linux64, C++) logging started Sun Jan 20 04:16:16 2019

Academic license - for non-commercial use only

Gurobi 8.0.1 (linux64, C++) logging started Sun Jan 20 18:23:36 2019

Academic license - for non-commercial use only

Gurobi 8.0.1 (linux64, C++) logging started Sun Jan 20 23:04:41 2019

Academic license - for non-commercial use only
